p idrup
i -13 -4 0
i 9 12 0
i 3 10 8 0
i 7 2 0
i 6 2 0
i -13 -11 0
i 5 2 0
i -16 -12 0
i -17 11 0
i 14 -9 0
i -7 -3 0
i 10 16 0
i -15 -14 -5 0
i -10 17 0
i -17 13 -6 0
i 4 1 -8 0
i 18 -2 0
i 15 13 0
q 0
l 2 1 0
s SATISFIABLE
m -1 2 -3 4 5 -6 7 8 -9 10 11 12 -13 -14 15 -16 17 18 0
